 vasp.5.4.1 05Feb16 (build Jul 05 2020 17:13:04) complex

 executed on           IFC91_ompi date 2024.04.17  15:18:13

 INCAR:
 POTCAR:   PAW_PBE V 08Apr2002
 POTCAR:   PAW_PBE Mo 08Apr2002
 POTCAR:   PAW_PBE W 08Apr2002
 POTCAR:    PAW_PBE S 17Jan2003

 POTCAR:   PAW_PBE V 08Apr2002
   VRHFIN =V: p6 d4 s1

   TITEL  = PAW_PBE V 08Apr2002
   POMASS =   50.941; ZVAL   =    5.000    mass and valenz
   ENMAX  =  192.543; ENMIN  =  144.408 eV
   QCUT   =   -3.762; QGAM   =    7.524    optimization parameters

   Description
     l     E      TYP  RCUT    TYP  RCUT
     2   .000     23  2.700
     2   .000     23  2.700
     0   .000     23  2.700
     0  2.000     23  2.700
     1   .000     23  2.700
     1  2.000     23  2.700
     3   .000      7   .000

 POTCAR:   PAW_PBE Mo 08Apr2002
   VRHFIN =Mo: 4p5s4d

[...]

 POTCAR:   PAW_PBE W 08Apr2002
   VRHFIN =W : 6s5d

   TITEL  = PAW_PBE W 08Apr2002
   POMASS =  183.850; ZVAL   =    6.000    mass and valenz
   ENMAX  =  223.057; ENMIN  =  167.293 eV
   QCUT   =   -4.049; QGAM   =    8.098    optimization parameters

[...]

 POTCAR:    PAW_PBE S 17Jan2003
   VRHFIN =S : s2p4

   TITEL  = PAW_PBE S 17Jan2003
   POMASS =   32.066; ZVAL   =    6.000    mass and valenz
   ENMAX  =  280.000; ENMIN  =  194.016 eV
   QCUT   =   -4.360; QGAM   =    8.721    optimization parameters

   Description
     l     E      TYP  RCUT    TYP  RCUT
     0   .000     23  1.900
     0   .000     23  1.900
     1   .000     23  1.900
     1   .000     23  1.900
     2   .000     23  1.900

 PAW_PBE V 08Apr2002                    :
 PAW_PBE Mo 08Apr2002                   :
 PAW_PBE W 08Apr2002                    :
  PAW_PBE S 17Jan2003                   :

 POSCAR: crystal structure from VMoWS2 with Hexag
  positions in cartesian coordinates
 exchange correlation table for  LEXCH =        8
   RHO(1)=    0.500       N(1)  =     2000
   RHO(2)=  100.500       N(2)  =     4000

 ion  position               nearest neighbor table
   1  0.000  0.000  0.000-  23 2.34  14 2.34  11 2.36  10 2.36  27 2.36  26 2.36
   2  1.000  0.333  0.000-  25 2.34  10 2.34  13 2.36  12 2.36  22 2.36  23 2.36
   3  0.000  0.667  0.000-  27 2.34  12 2.34  14 2.36  15 2.36  24 2.36  25 2.36
   4  0.333  0.000  0.000-  11 2.34  20 2.34  17 2.36  16 2.36  15 2.36  14 2.36   6 3.34   5 3.34
                             7 3.34   8 3.36
   5  0.333  0.333  0.000-  13 2.34  16 2.34  19 2.36  18 2.36  11 2.36  10 2.36   6 3.34   4 3.34
                             8 3.34   9 3.36
   6  0.333  0.667  0.000-  15 2.34  18 2.34  20 2.36  21 2.36  13 2.36  12 2.36   4 3.34   5 3.34
                             9 3.34   7 3.36
   7  0.667  0.000  0.000-  17 2.34  26 2.34  23 2.36  22 2.36  21 2.36  20 2.36   9 3.34   8 3.34
                             4 3.34   6 3.36
   8  0.667  0.333  0.000-  19 2.34  22 2.34  25 2.36  24 2.36  17 2.36  16 2.36   9 3.34   7 3.34
                             5 3.34   4 3.36
   9  0.667  0.667  0.000-  21 2.34  24 2.34  27 2.36  26 2.36  19 2.36  18 2.36   7 3.34   8 3.34
                             6 3.34   5 3.36
  10  0.111  0.222  0.955-   2 2.34   1 2.36   5 2.36
  11  0.222  0.111  0.045-   4 2.34   1 2.36   5 2.36
  12  0.111  0.556  0.955-   3 2.34   2 2.36   6 2.36
  13  0.222  0.444  0.045-   5 2.34   2 2.36   6 2.36
  14  0.111  0.889  0.955-   1 2.34   3 2.36   4 2.36
  15  0.222  0.777  0.045-   6 2.34   3 2.36   4 2.36
  16  0.444  0.222  0.955-   5 2.34   4 2.36   8 2.36
  17  0.556  0.111  0.045-   7 2.34   4 2.36   8 2.36
  18  0.444  0.556  0.955-   6 2.34   5 2.36   9 2.36
  19  0.556  0.444  0.045-   8 2.34   5 2.36   9 2.36
  20  0.444  0.889  0.955-   4 2.34   6 2.36   7 2.36
  21  0.556  0.777  0.045-   9 2.34   6 2.36   7 2.36
  22  0.777  0.222  0.955-   8 2.34   7 2.36   2 2.36
  23  0.889  0.111  0.045-   1 2.34   7 2.36   2 2.36
  24  0.777  0.556  0.955-   9 2.34   8 2.36   3 2.36
  25  0.889  0.444  0.045-   2 2.34   8 2.36   3 2.36
  26  0.777  0.889  0.955-   7 2.34   9 2.36   1 2.36
  27  0.889  0.777  0.045-   3 2.34   9 2.36   1 2.36

IMPORTANT INFORMATION: All symmetrisations will be switched off!
NOSYMM: (Re-)initialisation of all symmetry stuff for point group C_1.

 KPOINTS: K-POINTS 	#supercell of CrS2 in hexagona

Automatic generation of k-mesh.
Space group operators:
 irot       det(A)        alpha          n_x          n_y          n_z        tau_x        tau_y        tau_z
    1     1.000000     0.000000     1.000000     0.000000     0.000000     0.000000     0.000000     0.000000

 Subroutine IBZKPT returns following result:

 Found     34 irreducible k-points:

 Following reciprocal coordinates:
            Coordinates               Weight
  0.000000  0.000000  0.000000      1.000000
  0.125000  0.000000  0.000000      2.000000
  0.250000  0.000000  0.000000      2.000000
  0.375000  0.000000  0.000000      2.000000
  0.500000  0.000000  0.000000      1.000000
  0.000000  0.125000  0.000000      2.000000
  0.125000  0.125000  0.000000      2.000000
  0.250000  0.125000  0.000000      2.000000
  0.375000  0.125000  0.000000      2.000000
  0.500000  0.125000  0.000000      2.000000
 -0.375000  0.125000  0.000000      2.000000
 -0.250000  0.125000  0.000000      2.000000
 -0.125000  0.125000  0.000000      2.000000
  0.000000  0.250000  0.000000      2.000000
  0.125000  0.250000  0.000000      2.000000
  0.250000  0.250000  0.000000      2.000000
  0.375000  0.250000  0.000000      2.000000
  0.500000  0.250000  0.000000      2.000000
 -0.375000  0.250000  0.000000      2.000000
 -0.250000  0.250000  0.000000      2.000000
 -0.125000  0.250000  0.000000      2.000000
 -0.000000  0.375000  0.000000      2.000000
  0.125000  0.375000  0.000000      2.000000
  0.250000  0.375000  0.000000      2.000000
  0.375000  0.375000  0.000000      2.000000
  0.500000  0.375000  0.000000      2.000000
 -0.375000  0.375000  0.000000      2.000000
 -0.250000  0.375000  0.000000      2.000000
 -0.125000  0.375000  0.000000      2.000000
  0.000000  0.500000  0.000000      1.000000
  0.125000  0.500000  0.000000      2.000000
  0.250000  0.500000  0.000000      2.000000
  0.375000  0.500000  0.000000      2.000000
  0.500000  0.500000  0.000000      1.000000

 Following cartesian coordinates:
            Coordinates               Weight
  0.000000  0.000000  0.000000      1.000000
  0.007209  0.012401  0.000000      2.000000
  0.014418  0.024802  0.000000      2.000000
  0.021626  0.037202  0.000000      2.000000
  0.028835  0.049603  0.000000      1.000000
 -0.007209  0.012401  0.000000      2.000000
  0.000000  0.024802  0.000000      2.000000
  0.007209  0.037202  0.000000      2.000000
  0.014418  0.049603  0.000000      2.000000
  0.021626  0.062004  0.000000      2.000000
 -0.028835 -0.024802  0.000000      2.000000
 -0.021626 -0.012401  0.000000      2.000000
 -0.014418  0.000000  0.000000      2.000000
 -0.014418  0.024802  0.000000      2.000000
 -0.007209  0.037202  0.000000      2.000000
  0.000000  0.049603  0.000000      2.000000
  0.007209  0.062004  0.000000      2.000000
  0.014418  0.074405  0.000000      2.000000
 -0.036044 -0.012401  0.000000      2.000000
 -0.028835  0.000000  0.000000      2.000000
 -0.021626  0.012401  0.000000      2.000000
 -0.021626  0.037202  0.000000      2.000000
 -0.014418  0.049603  0.000000      2.000000
 -0.007209  0.062004  0.000000      2.000000
  0.000000  0.074405  0.000000      2.000000
  0.007209  0.086806  0.000000      2.000000
 -0.043253  0.000000  0.000000      2.000000
 -0.036044  0.012401  0.000000      2.000000
 -0.028835  0.024802  0.000000      2.000000
 -0.028835  0.049603  0.000000      1.000000
 -0.021626  0.062004  0.000000      2.000000
 -0.014418  0.074405  0.000000      2.000000
 -0.007209  0.086806  0.000000      2.000000
  0.000000  0.099206  0.000000      1.000000

 I would recommend the setting:
   dimension x,y,z NGX =    41 NGY =   41 NGZ =  123
 SYSTEM =  unknown system
 POSCAR =  crystal structure from VMoWS2 with Hexag

 Startparameter for this run:
   NWRITE =      2    write-flag & timer
   PREC   = normal    normal or accurate (medium, high low for compatibility)
   ISTART =      0    job   : 0-new  1-cont  2-samecut
   ICHARG =      2    charge: 1-file 2-atom 10-const
   ISPIN  =      1    spin polarized calculation?
   LNONCOLLINEAR =      F non collinear calculations
   LSORBIT =      F    spin-orbit coupling
   INIWAV =      1    electr: 0-lowe 1-rand  2-diag
   LASPH  =      F    aspherical Exc in radial PAW
   METAGGA=      F    non-selfconsistent MetaGGA calc.

 Electronic Relaxation 1
   ENCUT  =  280.0 eV  20.58 Ry    4.54 a.u.  13.68 13.68 40.93*2*pi/ulx,y,z
   ENINI  =  280.0     initial cutoff
   ENAUG  =  373.4 eV  augmentation charge cutoff
   NELM   =     60;   NELMIN=  2; NELMDL= -5     # of ELM steps
   EDIFF  = 0.1E-03   stopping-criterion for ELM
   LREAL  =      F    real-space projection
   NLSPLINE    = F    spline interpolate recip. space projectors
   LCOMPAT=      F    compatible to vasp.4.4
   GGA_COMPAT  = T    GGA compatible to vasp.4.4-vasp.4.6
   LMAXPAW     = -100 max onsite density
   LMAXMIX     =    2 max onsite mixed and CHGCAR
   VOSKOWN=      0    Vosko Wilk Nusair interpolation
   ROPT   =    0.00000   0.00000   0.00000   0.00000
 Ionic relaxation
   EDIFFG = 0.1E-02   stopping-criterion for IOM
   NSW    =    100    number of steps for IOM
   NBLOCK =      1;   KBLOCK =    100    inner block; outer block
   IBRION =      1    ionic relax: 0-MD 1-quasi-New 2-CG
   NFREE  =      0    steps in history (QN), initial steepest desc. (CG)
   ISIF   =      3    stress and relaxation
   IWAVPR =     11    prediction:  0-non 1-charg 2-wave 3-comb
   ISYM   =      0    0-nonsym 1-usesym 2-fastsym
   LCORR  =      T    Harris-Foulkes like correction to forces

   POTIM  = 0.5000    time-step for ionic-motion
   TEIN   =    0.0    initial temperature
   TEBEG  =    0.0;   TEEND  =   0.0 temperature during run
   SMASS  =  -3.00    Nose mass-parameter (am)
   estimated Nose-frequenzy (Omega)   =  0.10E-29 period in steps =****** mass=  -0.230E-26a.u.
   SCALEE = 1.0000    scale energy and forces
   NPACO  =    256;   APACO  = 16.0  distance and # of slots for P.C.
   PSTRESS=    0.0 pullay stress

  Mass of Ions in am
   POMASS =  50.94 95.94183.85 32.07
  Ionic Valenz
   ZVAL   =   5.00  6.00  6.00  6.00
  Atomic Wigner-Seitz radii
  virtual crystal weights
   VCA    =   1.00  1.00  1.00  1.00
   NELECT =     159.0000    total number of electrons
   NUPDOWN=      -1.0000    fix difference up-down

 DOS related values:
   EMIN   =  10.00;   EMAX   =-10.00  energy-range for DOS
   EFERMI =   0.00
   ISMEAR =     0;   SIGMA  =   0.20  broadening in eV -4-tet -1-fermi 0-gaus

 Electronic relaxation 2 (details)
   IALGO  =     38    algorithm
   LDIAG  =      T    sub-space diagonalisation (order eigenvalues)
   LSUBROT=      F    optimize rotation matrix (better conditioning)
   TURBO    =      0    0=normal 1=particle mesh
   IRESTART =      0    0=no restart 2=restart with 2 vectors
   NREBOOT  =      0    no. of reboots
   NMIN     =      0    reboot dimension
   EREF     =   0.00    reference energy to select bands
[...]
     -6.74900      5.03900     28.66200        -0.318104     -0.658820     -1.430588
     -4.81100      5.03900      1.33800        -0.527892     -0.694176      2.136866
      1.92100      3.35900     28.66200         0.188605      0.126142     -2.919448
      3.85900      3.35900      1.33800        -0.029487      0.177717      2.926105
     -0.96900      5.03900     28.66200         0.188569      0.126235     -2.919438
      0.96900      5.03900      1.33800        -0.029548      0.177819      2.926133
     -3.85900      6.71900     28.66200         0.188536      0.126224     -2.919410
     -1.92100      6.71900      1.33800        -0.029488      0.177783      2.926104
      4.81100      5.03900     28.66200         0.476929      0.585617     -2.141008
      6.74900      5.03900      1.33800         0.240217      0.526333      1.384531
      1.92100      6.71900     28.66200         0.476856      0.585667     -2.141010
      3.85900      6.71900      1.33800         0.240266      0.526388      1.384520
     -0.96900      8.39900     28.66200         0.476850      0.585584     -2.141022
      0.96900      8.39900      1.33800         0.240265      0.526269      1.384552
    total drift:                                0.000188      0.000299     -0.000139

  FREE ENERGIE OF THE ION-ELECTRON SYSTEM (eV)
  free  energy   TOTEN  =      -186.83184989 eV

  energy  without entropy=     -186.48673755  energy(sigma->0) =     -186.65929372

 Quasi-Newton relaxation of ions (Broydens 2nd method)
  g(Force)  = 0.476E+01   g(Stress)= 0.349E+00

 Reset! Starting new Quasi-Newton update for ions

[...]

 d Force = 0.2423225E+01[ 0.805E-01, 0.477E+01]  d Energy = 0.1845638E+01 0.578E+00
 d Force = 0.9611221E+03[ 0.944E+03, 0.978E+03]  d Ewald  = 0.2511425E+04-0.155E+04

[...]

 retain information from N=  1 steps
 eigenvalues of (default step * inverse Hessian matrix)
  average eigenvalue of G=   0.2408
 eigenvalue spectrum of G is  0.2408

[...]

 d Force = 0.3846006E-01[ 0.385E-01, 0.384E-01]  d Energy = 0.1103422E+01-0.106E+01
 d Force =-0.3025201E+01[-0.309E+01,-0.296E+01]  d Ewald  =-0.1926693E+04 0.192E+04

[...]

 d Force = 0.5051668E+00[ 0.449E+00, 0.561E+00]  d Energy = 0.1043446E+01-0.538E+00
 d Force = 0.4145801E+03[ 0.424E+03, 0.405E+03]  d Ewald  =-0.1559974E+04 0.197E+04

[...]

 d Force = 0.7459958E-01[ 0.738E-01, 0.754E-01]  d Energy = 0.7553380E-01-0.934E-03
 d Force =-0.2121579E+01[-0.208E+01,-0.216E+01]  d Ewald  = 0.4925573E+02-0.514E+02

[...]

 d Force =-0.2799010E-01[-0.751E-01, 0.192E-01]  d Energy =-0.2942194E-01 0.143E-02
 d Force =-0.4064570E+01[-0.413E+01,-0.400E+01]  d Ewald  =-0.1467710E+03 0.143E+03

[...]

 d Force = 0.2234863E-02[ 0.211E-02, 0.236E-02]  d Energy = 0.2222313E-02 0.125E-04
 d Force = 0.2453682E+01[ 0.246E+01, 0.244E+01]  d Ewald  = 0.1956693E+02-0.171E+02

[...]

 d Force = 0.1279428E-02[ 0.124E-02, 0.132E-02]  d Energy = 0.1240498E-02 0.389E-04
 d Force =-0.3296124E+01[-0.329E+01,-0.330E+01]  d Ewald  = 0.1427852E+02-0.176E+02

[...]

 d Force = 0.1282764E-02[ 0.123E-02, 0.133E-02]  d Energy = 0.1153613E-02 0.129E-03
 d Force = 0.1496855E+01[ 0.150E+01, 0.149E+01]  d Ewald  =-0.1078929E+02 0.123E+02

[...]

 FEWALD executed in parallel

[...]

 eigenvalue-minimisations  :  8672
 total energy-change (2. order) : 0.1688826E-03  (-0.1719046E-03)
 number of electron     158.9999780 magnetization
 augmentation part       -4.2401720 magnetization

 Broyden mixing:
  rms(total) = 0.21396E-02    rms(broyden)= 0.21331E-02
  rms(prec ) = 0.23105E-02
  weight for this iteration     100.00

 eigenvalues of (default mixing * dielectric matrix)
  average eigenvalue GAMMA=   0.5749
  0.9635  0.1864

[...]

----------------------------------------- Iteration   24(   4)  ---------------------------------------

 eigenvalue-minimisations  :  5824
 total energy-change (2. order) :-0.4829032E-05  (-0.9895562E-05)
 number of electron     158.9999780 magnetization
 augmentation part       -4.2401720 magnetization

 Free energy of the ion-electron system (eV)
  alpha Z        PSCENC =        89.51931804
  Ewald energy   TEWEN  =     44392.34539341
  -Hartree energ DENC   =    -50399.96477519
  -exchange      EXHF   =         0.00000000
  -V(xc)+E(xc)   XCENC  =      -233.51418476
  PAW double counting   =      4099.22284280    -3515.29364826
  entropy T*S    EENTRO =        -0.14234241
  eigenvalues    EBANDS =     -1386.05299281
  atomic energy  EATOM  =      6761.44252427
  Solvation  Ediel_sol  =         0.00000000
  free energy    TOTEN  =      -192.43786490 eV

  energy without entropy =     -192.29552249  energy(sigma->0) =     -192.36669369

 average (electrostatic) potential at core
  the test charge radii are     1.2064  1.2296  1.1823  0.9698
  (the norm of the test charge is              1.0000)
       1 -49.8639       2 -49.8640       3 -49.8641       4 -47.1052       5 -47.1044
       6 -47.1051       7 -49.5270       8 -49.5270       9 -49.5270      10 -94.9834
      11 -95.0757      12 -94.9833      13 -95.0757      14 -94.9834      15 -95.0756
      16 -95.1791      17 -95.2246      18 -95.1791      19 -95.2247      20 -95.1792
      21 -95.2247      22 -94.6842      23 -94.5715      24 -94.6842      25 -94.5716
      26 -94.6842      27 -94.5716

 E-fermi :  -3.2416     XC(G=0):  -2.5560     alpha+bet : -2.3676

[...]

 k-point    34 :       0.5000    0.5000    0.0000
  band No.  band energies     occupation
      1     -17.4268      2.00000
      2     -17.4267      2.00000
      3     -16.7146      2.00000
      4     -16.7145      2.00000
      5     -16.5651      2.00000
      6     -16.5650      2.00000
      7     -16.2160      2.00000
      8     -16.1899      2.00000
      9     -16.1721      2.00000
     10     -16.1719      2.00000
     11     -15.7929      2.00000
     12     -15.7532      2.00000
     13     -15.7531      2.00000
     14     -15.6850      2.00000
     15     -15.5001      2.00000
     16     -15.5000      2.00000
     17     -15.4537      2.00000
     18     -15.2664      2.00000
     19      -9.8273      2.00000
     20      -9.3999      2.00000
     21      -9.1913      2.00000
     22      -9.1913      2.00000
     23      -8.7676      2.00000
     24      -8.7676      2.00000
     25      -8.7490      2.00000
     26      -8.5577      2.00000
     27      -8.5576      2.00000
     28      -8.3743      2.00000
     29      -8.1577      2.00000
     30      -8.0813      2.00000
     31      -8.0789      2.00000
     32      -8.0789      2.00000
     33      -7.7873      2.00000
     34      -7.7870      2.00000
     35      -7.7256      2.00000
     36      -7.7093      2.00000
     37      -7.7092      2.00000
     38      -7.5205      2.00000
     39      -7.5205      2.00000
     40      -7.4294      2.00000
     41      -7.0390      2.00000
     42      -7.0103      2.00000
     43      -7.0102      2.00000
     44      -6.8529      2.00000
     45      -6.7463      2.00000
     46      -6.7463      2.00000
     47      -6.6415      2.00000
     48      -6.5701      2.00000
     49      -6.5700      2.00000
     50      -6.5634      2.00000
     51      -6.3609      2.00000
     52      -6.3106      2.00000
     53      -6.3105      2.00000
     54      -6.2613      2.00000
     55      -6.0800      2.00000
     56      -6.0800      2.00000
     57      -5.9815      2.00000
     58      -5.8629      2.00000
     59      -5.8629      2.00000
     60      -5.7285      2.00000
[...]
     82      -2.9844      0.06898
     83      -2.6378      0.00002
     84      -2.6377      0.00002
     85      -2.5654      0.00000
     86      -2.4660      0.00000
     87      -2.1626      0.00000
     88      -2.1624      0.00000
     89      -2.0458      0.00000
     90      -1.9110      0.00000
     91      -1.9109      0.00000
     92      -1.5843      0.00000
     93      -1.1826      0.00000
     94      -1.1741      0.00000
     95      -1.1739      0.00000
     96      -1.0849      0.00000

 soft charge-density along one line, spin component           1
         0         1         2         3         4         5         6         7         8         9
 total charge-density along one line

------------------------ aborting loop because EDIFF is reached ----------------------------------------

  FORCE on cell =-STRESS in cart. coord.  units (eV):
  Direction    XX          YY          ZZ          XY          YZ          ZX
  Alpha Z    89.51932    89.51932    89.51932
  Ewald   49356.46774 49305.63227-54269.77159   -43.95293    19.25847    11.04707
  Hartree 50061.00492 50029.44491-49690.66617   -27.30499    11.47426     6.60953
  E(xc)    -609.69392  -610.73903  -617.76360    -0.90701    -0.94533    -0.54489
  Local  ************************101398.45370    64.10031   -39.59706   -22.77118
  n-local  1213.99038  1216.13425  1248.52023     1.89443    -2.77051    -1.61094
  augment  -213.32339  -213.00134  -214.82182     0.26854     0.51062     0.30046
  Kinetic  2008.55459  2015.36271  2054.61641     5.90893    11.83429     6.83453
  Fock        0.00000     0.00000     0.00000     0.00000     0.00000     0.00000
  Total       0.04009     0.04836    -1.91353     0.00727    -0.23527    -0.13541
  in kB       0.02686     0.03240    -1.28196     0.00487    -0.15762    -0.09072

 VOLUME and BASIS-vectors are now :
  energy-cutoff  :      280.00
  volume of cell :     2391.50
      direct lattice vectors                 reciprocal lattice vectors
     8.308528379  4.828756158  0.000000000     0.059982761  0.103884211  0.000000000
    -8.281305141  4.781626987  0.000000000    -0.060573970  0.104225711  0.000000000
     0.000000000  0.000000000 30.000000000     0.000000000  0.000000000  0.033333333

  length of vectors
     9.609814247  9.562634129 30.000000000     0.119957747  0.120549594  0.033333333

 FORCES acting on ions
    electron-ion (+dipol)            ewald-force                    non-local-force                 convergence-correction
   0.119E+02 0.206E+02 0.102E+02   -.126E+02 -.219E+02 -.100E+02   0.764E+00 0.132E+01 -.196E+00   0.568E-02 0.110E-01 -.941E-02
   0.119E+02 0.206E+02 0.102E+02   -.126E+02 -.219E+02 -.100E+02   0.764E+00 0.132E+01 -.196E+00   0.665E-02 0.105E-01 -.934E-02
   0.119E+02 0.206E+02 0.102E+02   -.126E+02 -.219E+02 -.100E+02   0.764E+00 0.132E+01 -.196E+00   0.534E-02 0.907E-02 -.986E-02
   0.703E+01 0.122E+02 0.819E+01   -.689E+01 -.120E+02 -.827E+01   -.128E+00 -.223E+00 0.905E-01   -.111E-01 -.160E-01 -.110E-02
   0.705E+01 0.122E+02 0.819E+01   -.691E+01 -.120E+02 -.827E+01   -.128E+00 -.222E+00 0.907E-01   -.957E-02 -.164E-01 -.121E-02
   0.708E+01 0.122E+02 0.819E+01   -.694E+01 -.120E+02 -.827E+01   -.129E+00 -.222E+00 0.905E-01   -.824E-02 -.177E-01 -.112E-02
   -.177E+02 -.306E+02 -.199E+02   0.181E+02 0.313E+02 0.196E+02   -.410E+00 -.709E+00 0.337E+00   -.220E-02 -.381E-02 0.119E-02
   -.177E+02 -.306E+02 -.199E+02   0.181E+02 0.313E+02 0.195E+02   -.410E+00 -.709E+00 0.337E+00   -.424E-02 -.454E-02 0.866E-03
   -.177E+02 -.306E+02 -.199E+02   0.181E+02 0.313E+02 0.195E+02   -.409E+00 -.709E+00 0.337E+00   -.186E-02 -.602E-02 0.844E-03
   0.121E+02 0.209E+02 0.586E+03   -.126E+02 -.218E+02 -.589E+03   0.567E+00 0.983E+00 0.317E+01   0.203E-02 0.378E-02 0.196E-01
   0.935E+01 0.162E+02 -.589E+03   -.104E+02 -.180E+02 0.592E+03   0.100E+01 0.174E+01 -.306E+01   -.379E-02 -.198E-02 -.161E-01
   0.121E+02 0.209E+02 0.586E+03   -.126E+02 -.218E+02 -.589E+03   0.566E+00 0.983E+00 0.317E+01   0.313E-03 0.124E-02 0.189E-01
   0.935E+01 0.162E+02 -.589E+03   -.104E+02 -.179E+02 0.592E+03   0.100E+01 0.174E+01 -.306E+01   0.275E-04 -.436E-02 -.164E-01
   0.120E+02 0.209E+02 0.586E+03   -.126E+02 -.218E+02 -.589E+03   0.568E+00 0.983E+00 0.317E+01   0.104E-02 0.804E-03 0.187E-01
   0.935E+01 0.162E+02 -.589E+03   -.104E+02 -.179E+02 0.592E+03   0.100E+01 0.174E+01 -.306E+01   -.299E-02 -.535E-02 -.151E-01
   -.372E+01 -.644E+01 0.623E+03   0.425E+01 0.735E+01 -.627E+03   -.512E+00 -.885E+00 0.360E+01   -.114E-01 -.143E-01 -.863E-03
   -.110E+02 -.191E+02 -.627E+03   0.113E+02 0.196E+02 0.631E+03   -.267E+00 -.461E+00 -.398E+01   -.527E-02 -.791E-02 0.356E-02
   -.372E+01 -.644E+01 0.623E+03   0.425E+01 0.735E+01 -.627E+03   -.511E+00 -.886E+00 0.360E+01   -.686E-02 -.171E-01 -.868E-03
   -.110E+02 -.191E+02 -.627E+03   0.113E+02 0.196E+02 0.631E+03   -.267E+00 -.462E+00 -.398E+01   -.593E-02 -.103E-01 0.158E-02
   -.371E+01 -.643E+01 0.623E+03   0.424E+01 0.734E+01 -.627E+03   -.512E+00 -.886E+00 0.360E+01   -.845E-02 -.148E-01 -.305E-02
   -.110E+02 -.191E+02 -.627E+03   0.113E+02 0.196E+02 0.631E+03   -.267E+00 -.462E+00 -.398E+01   -.426E-02 -.859E-02 0.353E-02
   -.967E+01 -.167E+02 0.499E+03   0.985E+01 0.170E+02 -.504E+03   -.191E+00 -.332E+00 0.512E+01   0.825E-02 0.148E-01 -.682E-02
   0.142E+01 0.243E+01 -.490E+03   -.985E+00 -.169E+01 0.495E+03   -.434E+00 -.752E+00 -.476E+01   0.954E-02 0.168E-01 -.457E-02
   -.967E+01 -.167E+02 0.499E+03   0.985E+01 0.171E+02 -.504E+03   -.191E+00 -.332E+00 0.512E+01   0.842E-02 0.145E-01 -.639E-02
   0.141E+01 0.242E+01 -.490E+03   -.980E+00 -.168E+01 0.495E+03   -.434E+00 -.752E+00 -.477E+01   0.894E-02 0.167E-01 -.506E-02
   -.967E+01 -.167E+02 0.499E+03   0.985E+01 0.170E+02 -.504E+03   -.191E+00 -.331E+00 0.512E+01   0.861E-02 0.145E-01 -.691E-02
   0.140E+01 0.243E+01 -.490E+03   -.974E+00 -.168E+01 0.495E+03   -.434E+00 -.752E+00 -.477E+01   0.101E-01 0.159E-01 -.497E-02
   -.116E+01 -.202E+01 -.910E+00   -.479E-13 0.930E-13 0.398E-12   0.118E+01 0.204E+01 0.946E+00   -.113E-01 -.195E-01 -.504E-01

 POSITION                                       TOTAL-FORCE (eV/Angst)
      0.14715      0.25449     -0.04102         0.000988      0.001523     -0.035477
      5.69530      6.67705     -0.04099         0.000804      0.001743     -0.035479
     -5.37375      3.44216     -0.04101         0.001463      0.002446     -0.035010
      2.80932      1.67825     -0.02408        -0.000181     -0.000711      0.007116
      0.04902      3.27201     -0.02409        -0.000091     -0.000134      0.007330
     -2.71122      4.86582     -0.02407        -0.000545     -0.000592      0.007106
      5.38142      2.94547      0.06250        -0.001167     -0.001940      0.027865
      2.62098      4.53941      0.06246        -0.000967     -0.002029      0.028031
     -0.13947      6.13329      0.06247        -0.001197     -0.001860      0.028020
     -0.92068      1.59225     28.41059         0.007547      0.013181     -0.035238
      0.92455      1.60102      1.57335        -0.010821     -0.018579     -0.005649
     -3.68106      3.18610     28.41059         0.007715      0.013009     -0.034811
     -1.83585      3.19487      1.57337        -0.010636     -0.018643     -0.005641
     -6.44157      4.78004     28.41056         0.007384      0.013192     -0.034765
     -4.59628      4.78882      1.57331        -0.010937     -0.019010     -0.006413
      1.83548      3.17869     28.31897         0.007194      0.012699      0.013702
      3.67592      3.17913      1.72079        -0.007702     -0.013413      0.025485
     -0.92492      4.77255     28.31897         0.007380      0.012555      0.013714
      0.91552      4.77304      1.72080        -0.007806     -0.013564      0.025147
     -3.68539      6.36637     28.31909         0.007247      0.012536      0.013864
     -1.84492      6.36684      1.72082        -0.007723     -0.013357      0.025386
      4.62858      4.82913     28.68730        -0.002684     -0.004709      0.012824
      6.47085      4.83259      1.29161         0.006668      0.011707     -0.010742
      1.86813      6.42303     28.68726        -0.002749     -0.004838      0.012501
      3.71041      6.42649      1.29160         0.006794      0.011739     -0.010854
     -0.89231      8.01691     28.68727        -0.002765     -0.004708      0.012852
      0.94994      8.02039      1.29160         0.006787      0.011758     -0.010862
    total drift:                                0.001516      0.002162     -0.014369

  FREE ENERGIE OF THE ION-ELECTRON SYSTEM (eV)
  free  energy   TOTEN  =      -192.43786490 eV

  energy  without entropy=     -192.29552249  energy(sigma->0) =     -192.36669369

 d Force = 0.2792627E-03[ 0.249E-03, 0.309E-03]  d Energy = 0.2618077E-03 0.175E-04
 d Force =-0.5627879E-01[-0.560E-01,-0.566E-01]  d Ewald  =-0.7855255E+01 0.780E+01

 Quasi-Newton relaxation of ions (Broydens 2nd method)
  g(Force)  = 0.843E-03   g(Stress)= 0.724E-05

 retain information from N=  2 steps
 eigenvalues of (default step * inverse Hessian matrix)
  average eigenvalue of G=   4.0681
 eigenvalue spectrum of G is  4.0681  4.0681

 reached required accuracy - stopping structural energy minimisation